(set-info :Origin "This instance was generated by: BanditFuzz-- an RL fuzzer for SMT solvers" )
(set-info :Author "Joe Scott, Fed Mora, Vijay Ganesh" )
(set-info :Contact "Joe Scott, joseph.scott@uwaterloo.ca")
(set-logic QF_BV)
(declare-const bool_0 Bool)
(declare-const bool_1 Bool)
(declare-const bool_2 Bool)
(declare-const bool_3 Bool)
(declare-const bool_4 Bool)
(declare-const bv_0 (_ BitVec 32))
(declare-const bv_1 (_ BitVec 32))
(declare-const bv_2 (_ BitVec 32))
(declare-const bv_3 (_ BitVec 32))
(declare-const bv_4 (_ BitVec 32))
(assert (bvule (bvor (bvxor #x5c4e6cb7  bv_3) (bvsrem #xd466e248  #xd32ca26e )) (bvand (bvsub bv_0 #x3caa9a42 ) (bvand bv_4 #xb4cffb66 ))))
(assert (bvsle (bvsub (bvmul bv_4 bv_1) (bvshl #x73a5e5b8  bv_1)) (bvxnor (bvashr bv_2 bv_1) (bvand #x7cff7c14  #x70ed1032 ))))
(assert (bvule (bvor (bvurem bv_0 #xaa6e3879 ) (bvmul bv_3 bv_2)) (bvshl (bvudiv bv_3 #xf52ccfb9 ) (bvsub bv_4 bv_2))))
(assert (bvsge (bvsmod (bvsmod #x30fbe553  #x6454fe30 ) (bvsmod bv_4 bv_4)) (bvshl (bvudiv #xf35c342b  bv_0) (bvsmod bv_0 #x15c159b7 ))))
(assert (not (bvuge (bvxor #xd54d32f7  #xc8bc60fd ) (bvshl #x3a6b2fc6  #x1d9023d8 ))))
(check-sat)
(exit)
